c Generated map
c Size: 12 * 12, weights in range: 1 to 10, walls: True, with ratio 0.05
c dim 5 of 5
c
p sp 144 240
c graph contains 144 nodes and 240 arcs
c
a 1 13 5
a 13 1 5
a 1 2 7
a 2 1 7
a 2 14 3
a 14 2 3
a 2 3 9
a 3 2 9
a 3 4 4
a 4 3 4
a 4 16 6
a 16 4 6
a 4 5 8
a 5 4 8
a 5 17 2
a 17 5 2
a 5 6 5
a 6 5 5
a 6 18 2
a 18 6 2
a 6 7 6
a 7 6 6
a 7 19 6
a 19 7 6
a 7 8 6
a 8 7 6
a 8 20 9
a 20 8 9
a 8 9 8
a 9 8 8
a 9 21 3
a 21 9 3
a 9 10 7
a 10 9 7
a 10 22 6
a 22 10 6
a 10 11 4
a 11 10 4
a 11 23 3
a 23 11 3
a 11 12 5
a 12 11 5
a 12 24 7
a 24 12 7
a 13 25 4
a 25 13 4
a 13 14 4
a 14 13 4
a 14 26 4
a 26 14 4
a 16 28 2
a 28 16 2
a 16 17 6
a 17 16 6
a 17 29 6
a 29 17 6
a 17 18 7
a 18 17 7
a 18 30 7
a 30 18 7
a 18 19 10
a 19 18 10
a 19 31 6
a 31 19 6
a 19 20 8
a 20 19 8
a 20 32 7
a 32 20 7
a 20 21 2
a 21 20 2
a 21 33 10
a 33 21 10
a 21 22 10
a 22 21 10
a 22 34 1
a 34 22 1
a 22 23 10
a 23 22 10
a 23 35 9
a 35 23 9
a 23 24 7
a 24 23 7
a 24 36 6
a 36 24 6
a 25 37 5
a 37 25 5
a 25 26 4
a 26 25 4
a 26 38 7
a 38 26 7
a 28 40 6
a 40 28 6
a 28 29 2
a 29 28 2
a 29 41 6
a 41 29 6
a 29 30 10
a 30 29 10
a 30 42 7
a 42 30 7
a 30 31 2
a 31 30 2
a 31 32 1
a 32 31 1
a 32 44 2
a 44 32 2
a 32 33 5
a 33 32 5
a 33 45 8
a 45 33 8
a 33 34 3
a 34 33 3
a 34 46 10
a 46 34 10
a 34 35 4
a 35 34 4
a 35 47 6
a 47 35 6
a 35 36 8
a 36 35 8
a 36 48 1
a 48 36 1
a 37 38 5
a 38 37 5
a 38 50 3
a 50 38 3
a 38 39 3
a 39 38 3
a 39 51 9
a 51 39 9
a 39 40 2
a 40 39 2
a 40 52 10
a 52 40 10
a 40 41 7
a 41 40 7
a 41 53 8
a 53 41 8
a 41 42 4
a 42 41 4
a 42 54 1
a 54 42 1
a 44 56 8
a 56 44 8
a 44 45 3
a 45 44 3
a 45 57 3
a 57 45 3
a 45 46 1
a 46 45 1
a 46 58 10
a 58 46 10
a 46 47 5
a 47 46 5
a 47 59 10
a 59 47 10
a 47 48 4
a 48 47 4
a 48 60 2
a 60 48 2
a 50 62 3
a 62 50 3
a 50 51 10
a 51 50 10
a 51 63 1
a 63 51 1
a 51 52 1
a 52 51 1
a 52 64 10
a 64 52 10
a 52 53 2
a 53 52 2
a 53 65 5
a 65 53 5
a 53 54 8
a 54 53 8
a 54 66 6
a 66 54 6
a 54 55 1
a 55 54 1
a 55 67 4
a 67 55 4
a 55 56 4
a 56 55 4
a 56 68 4
a 68 56 4
a 56 57 5
a 57 56 5
a 57 69 2
a 69 57 2
a 57 58 4
a 58 57 4
a 58 70 8
a 70 58 8
a 58 59 4
a 59 58 4
a 59 71 6
a 71 59 6
a 59 60 3
a 60 59 3
a 60 72 7
a 72 60 7
a 61 73 5
a 73 61 5
a 61 62 1
a 62 61 1
a 62 74 9
a 74 62 9
a 62 63 2
a 63 62 2
a 63 75 7
a 75 63 7
a 63 64 7
a 64 63 7
a 64 76 10
a 76 64 10
a 64 65 10
a 65 64 10
a 65 77 1
a 77 65 1
a 65 66 6
a 66 65 6
a 66 78 5
a 78 66 5
a 66 67 9
a 67 66 9
a 67 79 8
a 79 67 8
a 67 68 6
a 68 67 6
a 68 80 9
a 80 68 9
a 68 69 2
a 69 68 2
a 69 81 3
a 81 69 3
a 69 70 1
a 70 69 1
a 70 82 3
a 82 70 3
a 70 71 6
a 71 70 6
a 71 83 8
a 83 71 8
a 71 72 7
a 72 71 7
a 72 84 5
a 84 72 5
a 73 85 7
a 85 73 7
a 73 74 10
a 74 73 10
a 74 86 7
a 86 74 7
a 74 75 5
a 75 74 5
a 75 87 3
a 87 75 3
a 75 76 7
a 76 75 7
a 76 88 6
a 88 76 6
a 76 77 2
a 77 76 2
a 77 89 2
a 89 77 2
a 77 78 5
a 78 77 5
a 78 90 10
a 90 78 10
a 78 79 1
a 79 78 1
a 79 91 1
a 91 79 1
a 79 80 6
a 80 79 6
a 80 92 5
a 92 80 5
a 80 81 5
a 81 80 5
a 81 93 9
a 93 81 9
a 81 82 9
a 82 81 9
a 82 94 2
a 94 82 2
a 82 83 6
a 83 82 6
a 83 95 9
a 95 83 9
a 83 84 8
a 84 83 8
a 84 96 3
a 96 84 3
a 85 97 4
a 97 85 4
a 85 86 2
a 86 85 2
a 86 98 3
a 98 86 3
a 86 87 9
a 87 86 9
a 87 99 6
a 99 87 6
a 87 88 9
a 88 87 9
a 88 100 1
a 100 88 1
a 88 89 8
a 89 88 8
a 89 101 5
a 101 89 5
a 89 90 7
a 90 89 7
a 90 102 8
a 102 90 8
a 90 91 5
a 91 90 5
a 91 103 8
a 103 91 8
a 91 92 6
a 92 91 6
a 92 104 6
a 104 92 6
a 92 93 4
a 93 92 4
a 93 105 9
a 105 93 9
a 93 94 4
a 94 93 4
a 94 106 10
a 106 94 10
a 94 95 7
a 95 94 7
a 95 107 8
a 107 95 8
a 95 96 7
a 96 95 7
a 96 108 6
a 108 96 6
a 97 109 7
a 109 97 7
a 97 98 7
a 98 97 7
a 98 110 2
a 110 98 2
a 98 99 7
a 99 98 7
a 99 111 10
a 111 99 10
a 99 100 9
a 100 99 9
a 100 112 6
a 112 100 6
a 100 101 10
a 101 100 10
a 101 113 6
a 113 101 6
a 101 102 10
a 102 101 10
a 102 103 3
a 103 102 3
a 103 104 9
a 104 103 9
a 104 116 3
a 116 104 3
a 104 105 1
a 105 104 1
a 105 117 10
a 117 105 10
a 105 106 1
a 106 105 1
a 106 118 9
a 118 106 9
a 106 107 9
a 107 106 9
a 107 119 3
a 119 107 3
a 107 108 4
a 108 107 4
a 108 120 6
a 120 108 6
a 109 121 8
a 121 109 8
a 109 110 7
a 110 109 7
a 110 122 6
a 122 110 6
a 110 111 5
a 111 110 5
a 111 123 3
a 123 111 3
a 111 112 5
a 112 111 5
a 112 124 6
a 124 112 6
a 112 113 9
a 113 112 9
a 113 125 7
a 125 113 7
a 116 128 1
a 128 116 1
a 116 117 4
a 117 116 4
a 117 129 4
a 129 117 4
a 117 118 3
a 118 117 3
a 118 130 2
a 130 118 2
a 118 119 5
a 119 118 5
a 119 131 8
a 131 119 8
a 119 120 7
a 120 119 7
a 120 132 10
a 132 120 10
a 121 133 4
a 133 121 4
a 121 122 7
a 122 121 7
a 122 134 9
a 134 122 9
a 122 123 8
a 123 122 8
a 123 135 9
a 135 123 9
a 123 124 9
a 124 123 9
a 124 136 5
a 136 124 5
a 124 125 5
a 125 124 5
a 125 126 5
a 126 125 5
a 126 138 7
a 138 126 7
a 126 127 9
a 127 126 9
a 127 139 5
a 139 127 5
a 127 128 1
a 128 127 1
a 128 140 9
a 140 128 9
a 128 129 2
a 129 128 2
a 129 141 4
a 141 129 4
a 129 130 1
a 130 129 1
a 130 142 3
a 142 130 3
a 130 131 6
a 131 130 6
a 131 143 6
a 143 131 6
a 131 132 9
a 132 131 9
a 132 144 9
a 144 132 9
a 133 134 6
a 134 133 6
a 134 135 9
a 135 134 9
a 135 136 10
a 136 135 10
a 138 139 4
a 139 138 4
a 139 140 9
a 140 139 9
a 140 141 9
a 141 140 9
a 141 142 3
a 142 141 3
a 142 143 7
a 143 142 7
a 143 144 5
a 144 143 5
